16 32
1 2 1
1 5 2
2 3 5
2 6 4
3 4 4
3 7 2
4 8 2
5 6 4
5 9 4
6 7 3
6 10 3
7 8 3
7 11 3
8 12 4
9 10 3
9 13 4
10 11 2
10 14 5
11 12 1
11 15 5
12 16 4
13 14 3
14 15 2
15 16 5
1 13 2
2 14 1
3 15 3
4 16 3
1 4 4
5 8 1
9 12 3
13 16 5
